c nIsolatedPIs 0
c maxPI 12
p cnf 206 583
c gate 13 1 6 0
1 -13 0
6 -13 0
-1 -6 13 0
c gate 14 2 5 0
2 -14 0
5 -14 0
-2 -5 14 0
c gate 15 -13 -14 0
-13 -15 0
-14 -15 0
13 14 15 0
c gate 16 10 -15 0
10 -16 0
-15 -16 0
-10 15 16 0
c gate 17 1 5 0
1 -17 0
5 -17 0
-1 -5 17 0
c gate 18 9 17 0
9 -18 0
17 -18 0
-9 -17 18 0
c gate 19 -10 15 0
-10 -19 0
15 -19 0
10 -15 19 0
c gate 20 -16 -19 0
-16 -20 0
-19 -20 0
16 19 20 0
c gate 21 18 20 0
18 -21 0
20 -21 0
-18 -20 21 0
c gate 22 -16 -21 0
-16 -22 0
-21 -22 0
16 21 22 0
c gate 23 1 7 0
1 -23 0
7 -23 0
-1 -7 23 0
c gate 24 2 6 0
2 -24 0
6 -24 0
-2 -6 24 0
c gate 25 3 5 0
3 -25 0
5 -25 0
-3 -5 25 0
c gate 26 -24 -25 0
-24 -26 0
-25 -26 0
24 25 26 0
c gate 27 23 -26 0
23 -27 0
-26 -27 0
-23 26 27 0
c gate 28 -23 26 0
-23 -28 0
26 -28 0
23 -26 28 0
c gate 29 -27 -28 0
-27 -29 0
-28 -29 0
27 28 29 0
c gate 30 11 29 0
11 -30 0
29 -30 0
-11 -29 30 0
c gate 31 -11 -29 0
-11 -31 0
-29 -31 0
11 29 31 0
c gate 32 -30 -31 0
-30 -32 0
-31 -32 0
30 31 32 0
c gate 33 -22 32 0
-22 -33 0
32 -33 0
22 -32 33 0
c gate 34 22 -32 0
22 -34 0
-32 -34 0
-22 32 34 0
c gate 35 -33 -34 0
-33 -35 0
-34 -35 0
33 34 35 0
c gate 36 13 14 0
13 -36 0
14 -36 0
-13 -14 36 0
c gate 37 24 25 0
24 -37 0
25 -37 0
-24 -25 37 0
c gate 38 -23 37 0
-23 -38 0
37 -38 0
23 -37 38 0
c gate 39 -29 -37 0
-29 -39 0
-37 -39 0
29 37 39 0
c gate 40 -38 -39 0
-38 -40 0
-39 -40 0
38 39 40 0
c gate 41 36 40 0
36 -41 0
40 -41 0
-36 -40 41 0
c gate 42 -36 -40 0
-36 -42 0
-40 -42 0
36 40 42 0
c gate 43 -41 -42 0
-41 -43 0
-42 -43 0
41 42 43 0
c gate 44 11 43 0
11 -44 0
43 -44 0
-11 -43 44 0
c gate 45 -11 -43 0
-11 -45 0
-43 -45 0
11 43 45 0
c gate 46 -44 -45 0
-44 -46 0
-45 -46 0
44 45 46 0
c gate 47 -18 -20 0
-18 -47 0
-20 -47 0
18 20 47 0
c gate 48 -21 -47 0
-21 -48 0
-47 -48 0
21 47 48 0
c gate 49 36 -48 0
36 -49 0
-48 -49 0
-36 48 49 0
c gate 50 -22 -49 0
-22 -50 0
-49 -50 0
22 49 50 0
c gate 51 46 50 0
46 -51 0
50 -51 0
-46 -50 51 0
c gate 52 -46 -50 0
-46 -52 0
-50 -52 0
46 50 52 0
c gate 53 -51 -52 0
-51 -53 0
-52 -53 0
51 52 53 0
c gate 54 35 -53 0
35 -54 0
-53 -54 0
-35 53 54 0
c gate 55 -35 53 0
-35 -55 0
53 -55 0
35 -53 55 0
c gate 56 -54 -55 0
-54 -56 0
-55 -56 0
54 55 56 0
c gate 57 -27 -37 0
-27 -57 0
-37 -57 0
27 37 57 0
c gate 58 2 7 0
2 -58 0
7 -58 0
-2 -7 58 0
c gate 59 3 6 0
3 -59 0
6 -59 0
-3 -6 59 0
c gate 60 4 5 0
4 -60 0
5 -60 0
-4 -5 60 0
c gate 61 -59 -60 0
-59 -61 0
-60 -61 0
59 60 61 0
c gate 62 -58 61 0
-58 -62 0
61 -62 0
58 -61 62 0
c gate 63 58 -61 0
58 -63 0
-61 -63 0
-58 61 63 0
c gate 64 59 60 0
59 -64 0
60 -64 0
-59 -60 64 0
c gate 65 -63 -64 0
-63 -65 0
-64 -65 0
63 64 65 0
c gate 66 58 64 0
58 -66 0
64 -66 0
-58 -64 66 0
c gate 67 -65 -66 0
-65 -67 0
-66 -67 0
65 66 67 0
c gate 68 -62 -67 0
-62 -68 0
-67 -68 0
62 67 68 0
c gate 69 -57 68 0
-57 -69 0
68 -69 0
57 -68 69 0
c gate 70 1 8 0
1 -70 0
8 -70 0
-1 -8 70 0
c gate 71 57 -68 0
57 -71 0
-68 -71 0
-57 68 71 0
c gate 72 -69 -71 0
-69 -72 0
-71 -72 0
69 71 72 0
c gate 73 70 72 0
70 -73 0
72 -73 0
-70 -72 73 0
c gate 74 -69 -73 0
-69 -74 0
-73 -74 0
69 73 74 0
c gate 75 2 8 0
2 -75 0
8 -75 0
-2 -8 75 0
c gate 76 4 6 0
4 -76 0
6 -76 0
-4 -6 76 0
c gate 77 3 7 0
3 -77 0
7 -77 0
-3 -7 77 0
c gate 78 -76 -77 0
-76 -78 0
-77 -78 0
76 77 78 0
c gate 79 76 77 0
76 -79 0
77 -79 0
-76 -77 79 0
c gate 80 -78 -79 0
-78 -80 0
-79 -80 0
78 79 80 0
c gate 81 -65 80 0
-65 -81 0
80 -81 0
65 -80 81 0
c gate 82 65 -80 0
65 -82 0
-80 -82 0
-65 80 82 0
c gate 83 -81 -82 0
-81 -83 0
-82 -83 0
81 82 83 0
c gate 84 -75 -83 0
-75 -84 0
-83 -84 0
75 83 84 0
c gate 85 75 83 0
75 -85 0
83 -85 0
-75 -83 85 0
c gate 86 -84 -85 0
-84 -86 0
-85 -86 0
84 85 86 0
c gate 87 -74 86 0
-74 -87 0
86 -87 0
74 -86 87 0
c gate 88 -70 -72 0
-70 -88 0
-72 -88 0
70 72 88 0
c gate 89 -73 -88 0
-73 -89 0
-88 -89 0
73 88 89 0
c gate 90 41 89 0
41 -90 0
89 -90 0
-41 -89 90 0
c gate 91 74 -86 0
74 -91 0
-86 -91 0
-74 86 91 0
c gate 92 -87 -91 0
-87 -92 0
-91 -92 0
87 91 92 0
c gate 93 90 92 0
90 -93 0
92 -93 0
-90 -92 93 0
c gate 94 -87 -93 0
-87 -94 0
-93 -94 0
87 93 94 0
c gate 95 -81 -85 0
-81 -95 0
-85 -95 0
81 85 95 0
c gate 96 3 8 0
3 -96 0
8 -96 0
-3 -8 96 0
c gate 97 4 7 0
4 -97 0
7 -97 0
-4 -7 97 0
c gate 98 -59 97 0
-59 -98 0
97 -98 0
59 -97 98 0
c gate 99 96 -98 0
96 -99 0
-98 -99 0
-96 98 99 0
c gate 100 -96 98 0
-96 -100 0
98 -100 0
96 -98 100 0
c gate 101 -99 -100 0
-99 -101 0
-100 -101 0
99 100 101 0
c gate 102 -95 -101 0
-95 -102 0
-101 -102 0
95 101 102 0
c gate 103 95 101 0
95 -103 0
101 -103 0
-95 -101 103 0
c gate 104 -102 -103 0
-102 -104 0
-103 -104 0
102 103 104 0
c gate 105 94 -104 0
94 -105 0
-104 -105 0
-94 104 105 0
c gate 106 -94 104 0
-94 -106 0
104 -106 0
94 -104 106 0
c gate 107 -105 -106 0
-105 -107 0
-106 -107 0
105 106 107 0
c gate 108 -90 -92 0
-90 -108 0
-92 -108 0
90 92 108 0
c gate 109 -93 -108 0
-93 -109 0
-108 -109 0
93 108 109 0
c gate 110 -41 -89 0
-41 -110 0
-89 -110 0
41 89 110 0
c gate 111 -90 -110 0
-90 -111 0
-110 -111 0
90 110 111 0
c gate 112 12 111 0
12 -112 0
111 -112 0
-12 -111 112 0
c gate 113 -12 -111 0
-12 -113 0
-111 -113 0
12 111 113 0
c gate 114 -112 -113 0
-112 -114 0
-113 -114 0
112 113 114 0
c gate 115 -44 -51 0
-44 -115 0
-51 -115 0
44 51 115 0
c gate 116 114 -115 0
114 -116 0
-115 -116 0
-114 115 116 0
c gate 117 -112 -116 0
-112 -117 0
-116 -117 0
112 116 117 0
c gate 118 109 -117 0
109 -118 0
-117 -118 0
-109 117 118 0
c gate 119 107 118 0
107 -119 0
118 -119 0
-107 -118 119 0
c gate 120 -107 -118 0
-107 -120 0
-118 -120 0
107 118 120 0
c gate 121 -119 -120 0
-119 -121 0
-120 -121 0
119 120 121 0
c gate 122 63 80 0
63 -122 0
80 -122 0
-63 -80 122 0
c gate 123 -63 -80 0
-63 -123 0
-80 -123 0
63 80 123 0
c gate 124 -122 -123 0
-122 -124 0
-123 -124 0
122 123 124 0
c gate 125 75 124 0
75 -125 0
124 -125 0
-75 -124 125 0
c gate 126 -122 -125 0
-122 -126 0
-125 -126 0
122 125 126 0
c gate 127 101 126 0
101 -127 0
126 -127 0
-101 -126 127 0
c gate 128 -101 -126 0
-101 -128 0
-126 -128 0
101 126 128 0
c gate 129 -127 -128 0
-127 -129 0
-128 -129 0
127 128 129 0
c gate 130 -62 -63 0
-62 -130 0
-63 -130 0
62 63 130 0
c gate 131 27 130 0
27 -131 0
130 -131 0
-27 -130 131 0
c gate 132 -27 -130 0
-27 -132 0
-130 -132 0
27 130 132 0
c gate 133 -131 -132 0
-131 -133 0
-132 -133 0
131 132 133 0
c gate 134 70 133 0
70 -134 0
133 -134 0
-70 -133 134 0
c gate 135 -131 -134 0
-131 -135 0
-134 -135 0
131 134 135 0
c gate 136 -75 -124 0
-75 -136 0
-124 -136 0
75 124 136 0
c gate 137 -125 -136 0
-125 -137 0
-136 -137 0
125 136 137 0
c gate 138 -135 137 0
-135 -138 0
137 -138 0
135 -137 138 0
c gate 139 135 -137 0
135 -139 0
-137 -139 0
-135 137 139 0
c gate 140 -138 -139 0
-138 -140 0
-139 -140 0
138 139 140 0
c gate 141 -70 -133 0
-70 -141 0
-133 -141 0
70 133 141 0
c gate 142 -134 -141 0
-134 -142 0
-141 -142 0
134 141 142 0
c gate 143 12 142 0
12 -143 0
142 -143 0
-12 -142 143 0
c gate 144 -30 -33 0
-30 -144 0
-33 -144 0
30 33 144 0
c gate 145 -12 -142 0
-12 -145 0
-142 -145 0
12 142 145 0
c gate 146 -143 -145 0
-143 -146 0
-145 -146 0
143 145 146 0
c gate 147 -144 146 0
-144 -147 0
146 -147 0
144 -146 147 0
c gate 148 -143 -147 0
-143 -148 0
-147 -148 0
143 147 148 0
c gate 149 140 -148 0
140 -149 0
-148 -149 0
-140 148 149 0
c gate 150 -138 -149 0
-138 -150 0
-149 -150 0
138 149 150 0
c gate 151 129 150 0
129 -151 0
150 -151 0
-129 -150 151 0
c gate 152 -129 -150 0
-129 -152 0
-150 -152 0
129 150 152 0
c gate 153 -151 -152 0
-151 -153 0
-152 -153 0
151 152 153 0
c gate 154 -121 -153 0
-121 -154 0
-153 -154 0
121 153 154 0
c gate 155 121 153 0
121 -155 0
153 -155 0
-121 -153 155 0
c gate 156 -140 148 0
-140 -156 0
148 -156 0
140 -148 156 0
c gate 157 -149 -156 0
-149 -157 0
-156 -157 0
149 156 157 0
c gate 158 -109 117 0
-109 -158 0
117 -158 0
109 -117 158 0
c gate 159 -118 -158 0
-118 -159 0
-158 -159 0
118 158 159 0
c gate 160 157 -159 0
157 -160 0
-159 -160 0
-157 159 160 0
c gate 161 144 -146 0
144 -161 0
-146 -161 0
-144 146 161 0
c gate 162 -147 -161 0
-147 -162 0
-161 -162 0
147 161 162 0
c gate 163 -114 115 0
-114 -163 0
115 -163 0
114 -115 163 0
c gate 164 -116 -163 0
-116 -164 0
-163 -164 0
116 163 164 0
c gate 165 162 -164 0
162 -165 0
-164 -165 0
-162 164 165 0
c gate 166 -162 164 0
-162 -166 0
164 -166 0
162 -164 166 0
c gate 167 -49 -55 0
-49 -167 0
-55 -167 0
49 55 167 0
c gate 168 -54 -167 0
-54 -168 0
-167 -168 0
54 167 168 0
c gate 169 -166 -168 0
-166 -169 0
-168 -169 0
166 168 169 0
c gate 170 -165 -169 0
-165 -170 0
-169 -170 0
165 169 170 0
c gate 171 -160 170 0
-160 -171 0
170 -171 0
160 -170 171 0
c gate 172 -157 159 0
-157 -172 0
159 -172 0
157 -159 172 0
c gate 173 -171 -172 0
-171 -173 0
-172 -173 0
171 172 173 0
c gate 174 -155 173 0
-155 -174 0
173 -174 0
155 -173 174 0
c gate 175 -154 -174 0
-154 -175 0
-174 -175 0
154 174 175 0
c gate 176 4 8 0
4 -176 0
8 -176 0
-4 -8 176 0
c gate 177 -79 -176 0
-79 -177 0
-176 -177 0
79 176 177 0
c gate 178 77 176 0
77 -178 0
176 -178 0
-77 -176 178 0
c gate 179 -177 -178 0
-177 -179 0
-178 -179 0
177 178 179 0
c gate 180 -102 -106 0
-102 -180 0
-106 -180 0
102 106 180 0
c gate 181 179 -180 0
179 -181 0
-180 -181 0
-179 180 181 0
c gate 182 -179 180 0
-179 -182 0
180 -182 0
179 -180 182 0
c gate 183 -181 -182 0
-181 -183 0
-182 -183 0
181 182 183 0
c gate 184 -119 -183 0
-119 -184 0
-183 -184 0
119 183 184 0
c gate 185 119 183 0
119 -185 0
183 -185 0
-119 -183 185 0
c gate 186 -128 -138 0
-128 -186 0
-138 -186 0
128 138 186 0
c gate 187 -127 -186 0
-127 -187 0
-186 -187 0
127 186 187 0
c gate 188 179 187 0
179 -188 0
187 -188 0
-179 -187 188 0
c gate 189 -179 -187 0
-179 -189 0
-187 -189 0
179 187 189 0
c gate 190 -188 -189 0
-188 -190 0
-189 -190 0
188 189 190 0
c gate 191 129 149 0
129 -191 0
149 -191 0
-129 -149 191 0
c gate 192 -190 -191 0
-190 -192 0
-191 -192 0
190 191 192 0
c gate 193 -185 192 0
-185 -193 0
192 -193 0
185 -192 193 0
c gate 194 -184 193 0
-184 -194 0
193 -194 0
184 -193 194 0
c gate 195 -181 -185 0
-181 -195 0
-185 -195 0
181 185 195 0
c gate 196 -178 -188 0
-178 -196 0
-188 -196 0
178 188 196 0
c gate 197 -195 196 0
-195 -197 0
196 -197 0
195 -196 197 0
c gate 198 -194 -197 0
-194 -198 0
-197 -198 0
194 197 198 0
c gate 199 -175 198 0
-175 -199 0
198 -199 0
175 -198 199 0
c gate 200 -49 199 0
-49 -200 0
199 -200 0
49 -199 200 0
c gate 201 36 48 0
36 -201 0
48 -201 0
-36 -48 201 0
c gate 202 -199 -201 0
-199 -202 0
-201 -202 0
199 201 202 0
c gate 203 -200 -202 0
-200 -203 0
-202 -203 0
200 202 203 0
c gate 204 56 -203 0
56 -204 0
-203 -204 0
-56 203 204 0
c gate 205 -56 203 0
-56 -205 0
203 -205 0
56 -203 205 0
c gate 206 -204 -205 0
-204 -206 0
-205 -206 0
204 205 206 0
c PO
206 0
